************************************************************************
file with basedata            : md365_.bas
initial value random generator: 1892075516
************************************************************************
projects                      :  1
jobs (incl. supersource/sink ):  22
horizon                       :  156
RESOURCES
  - renewable                 :  2   R
  - nonrenewable              :  2   N
  - doubly constrained        :  0   D
************************************************************************
PROJECT INFORMATION:
pronr.  #jobs rel.date duedate tardcost  MPM-Time
    1     20      0       22       17       22
************************************************************************
PRECEDENCE RELATIONS:
jobnr.    #modes  #successors   successors
   1        1          3           2   3   4
   2        3          3           5   6  10
   3        3          1           8
   4        3          2           6  10
   5        3          2           8   9
   6        3          2           7  14
   7        3          2          16  21
   8        3          3          11  12  13
   9        3          2          18  20
  10        3          3          12  16  18
  11        3          1          16
  12        3          2          14  21
  13        3          2          14  15
  14        3          1          17
  15        3          2          17  18
  16        3          2          19  20
  17        3          2          19  20
  18        3          2          19  21
  19        3          1          22
  20        3          1          22
  21        3          1          22
  22        1          0        
************************************************************************
REQUESTS/DURATIONS:
jobnr. mode duration  R 1  R 2  N 1  N 2
------------------------------------------------------------------------
  1      1     0       0    0    0    0
  2      1     4       9    9    9    8
         2     5       9    6    5    7
         3     6       8    4    4    4
  3      1     1       6    9    8    6
         2     2       5    8    7    6
         3     9       3    8    6    2
  4      1     2       3    7    9    6
         2     7       3    3    7    6
         3     7       3    5    7    1
  5      1     1       7    6    5    6
         2     2       7    5    4    6
         3     6       7    3    1    3
  6      1     8       6    9    4    5
         2     9       4    6    4    5
         3    10       2    5    3    5
  7      1     1       5    8   10    9
         2     8       4    3    5    9
         3     8       3    6    7    9
  8      1     3      10    8    6    7
         2     3      10    6    7    6
         3     5       9    4    5    3
  9      1     6       7    7    6    9
         2     8       5    6    1    8
         3     8       6    3    2    7
 10      1     8       6    8    6    7
         2    10       3    5    6    4
         3    10       2    7    6    3
 11      1     3       5    6    9    7
         2     5       5    5    7    7
         3     6       4    3    7    7
 12      1     1       3    6   10    1
         2     6       2    6    9    1
         3     9       2    5    8    1
 13      1     3       5    3    9    5
         2     8       5    2    9    4
         3     8       5    3    8    2
 14      1     2       2    9    9    6
         2     6       2    9    8    5
         3     6       1    9    9    4
 15      1     3       9    5    4    4
         2     5       6    1    4    3
         3     5       6    4    3    3
 16      1     2       7    6    6   10
         2     3       6    6    6   10
         3     8       5    3    5   10
 17      1     3       9    8    7    6
         2     6       6    7    4    3
         3     9       3    6    2    3
 18      1     1       3    7   10    7
         2     3       2    7    8    6
         3    10       2    6    7    6
 19      1     4      10    5    6    6
         2     7       9    5    6    3
         3     9       8    5    5    2
 20      1     3       9    6    8    5
         2     6       8    5    8    2
         3     8       7    4    8    1
 21      1     3       8    8    6    8
         2     3       5    8    7    8
         3     9       3    8    4    8
 22      1     0       0    0    0    0
************************************************************************
RESOURCEAVAILABILITIES:
  R 1  R 2  N 1  N 2
   14   15  126  106
************************************************************************
MAXIMAL LAGS:
from  to  type  delay
    1   12   ES      0
    1    2   ES      0
    2   12   ES      0
    1    3   ES      0
    3   12   ES      0
    1    4   ES      0
    4   12   ES      0
    1    5   ES      0
    5   12   ES      0
    1    6   ES      0
    6   12   ES      0
    1    7   ES      0
    7   12   ES      0
    1    8   ES      0
    8   12   ES      0
    1    9   ES      0
    9   12   ES      0
    1   10   ES      0
   10   12   ES      0
    1   11   ES      0
   11   12   ES      0
    1   12   ES      0
    2    5   SS      5
    2    5   SE      6
    5    2   SE      0
    2    5   ES      0
    2    5   EE     -4
    2    6   SS     12
    2    6   SE      6
    2    6   ES      0
    2    6   EE      0
    2   10   SS      1
    2   10   SE      9
    2   10   ES      4
    2   10   EE    -10
    3    8   SS     -9
    3    8   SE      9
    3    8   ES      5
    3    8   EE     -7
    4    6   SS     -8
    4    6   SE      6
    4    6   ES     -8
    4    6   EE     -5
    4   10   SS      9
    4   10   SE     12
    4   10   ES      8
    4   10   EE      8
    5    8   SS      8
    5    8   SE     -8
    5    8   ES     -4
    5    8   EE      0
    5    9   SS      5
    5    9   SE      3
    5    9   ES     -8
    5    9   EE     -7
    6    7   SS    -11
    6    7   SE     -5
    6    7   ES      2
    6    7   EE     -6
    6   14   SS     -5
    6   14   SE      3
    6   14   ES     10
    6   14   EE      5
    7   16   SS     12
    7   16   SE     -4
    7   16   ES    -11
    7   16   EE      0
    7   21   SS      9
    7   21   SE     10
    7   21   ES    -10
    7   21   EE     -6
    8   11   SS      4
    8   11   SE      1
    8   11   ES      3
    8   11   EE     -3
    8   13   SS     10
    8   13   SE      4
    8   13   ES     -2
    8   13   EE      3
    9   18   SS      4
    9   18   SE     -5
    9   18   ES    -11
    9   18   EE     -4
    9   20   SS     -2
    9   20   SE     -2
    9   20   ES      6
    9   20   EE      0
   10   16   SS      9
   10   16   SE     -2
   10   16   ES      9
   10   16   EE     12
   10   18   SS      2
   10   18   SE      9
   10   18   ES      0
   10   18   EE      8
   11   16   SS      9
   11   16   SE     -1
   11   16   ES      2
   11   16   EE      4
   12   14   SS      0
   12   14   SE      5
   12   14   ES      9
   12   14   EE    -12
   12   21   SS    -11
   12   21   SE     -1
   12   21   ES     -2
   12   21   EE    -10
   13   14   SS     11
   13   14   SE     -8
   13   14   ES      0
   13   14   EE      8
   13   15   SS     11
   13   15   SE      3
   13   15   ES      8
   13   15   EE      1
   14   17   SS     -4
   14   17   SE      8
   14   17   ES     -4
   14   17   EE      7
   15   17   SS     -4
   15   17   SE     -6
   15   17   ES      1
   15   17   EE     -5
   15   18   SS     -7
   15   18   SE      2
   15   18   ES    -11
   15   18   EE     -1
   16   19   SS      1
   16   19   SE     -9
   16   19   ES     -4
   16   19   EE      1
   16   20   SS     -1
   16   20   SE     -6
   16   20   ES     -4
   16   20   EE     -4
   17   19   SS     -7
   17   19   SE    -11
   17   19   ES    -11
   17   19   EE     -3
   17   20   SS     -8
   17   20   SE    -10
   17   20   ES      9
   17   20   EE      4
   18   19   SS      1
   18   19   SE      2
   18   19   ES     -4
   18   19   EE      2
   18   21   SS     10
   18   21   SE     -9
   18   21   ES     -1
   18   21   EE     -8
   19   22   SS    -11
   19   22   SE     -5
   19   22   ES     -2
   19   22   EE    -10
   20   22   SS      8
   20   22   SE      6
   20   22   ES    -10
   20   22   EE      6
   21   22   SS      4
   21   22   SE     -1
   21   22   ES      9
   21   22   EE      9
************************************************************************
